proyfinal/src/viki/013/experimentInOfficeAgust.take6.output/82b9c8ad-5569-4952-b7f9-7b4fedd26f13.als.out
Reading from standard input... Use '--help' for help.
============================[ Problem Statistics ]=============================
|                                                                             |
|  Number of variables:         87638                                         |
|  Number of clauses:          161767                                         |
|  Parse time:                   0.04 s                                       |
|                                                                             |
============================[ Search Statistics ]==============================
| Conflicts |          ORIGINAL         |          LEARNT          | Progress |
|           |    Vars  Clauses Literals |    Limit  Clauses Lit/Cl |          |
===============================================================================
|       100 |   61887   103461   258455 |    37935      100     69 | 29.383 % |
|       250 |   61887   103461   258455 |    41729      250    132 | 29.383 % |
|       475 |   61887   103461   258455 |    45902      475    140 | 29.383 % |
|       812 |   61886   103417   258365 |    50492      811    120 | 29.385 % |
|      1318 |   61886   103417   258365 |    55541     1317    148 | 29.385 % |
|      2077 |   43620    50442   128703 |    61095     2008    118 | 50.227 % |
|      3216 |   43612    50401   128591 |    67205     2824     90 | 50.236 % |
===============================================================================
restarts              : 18
conflicts             : 3588           (8023 /sec)
decisions             : 12665          (0.00 % random) (28320 /sec)
propagations          : 5112839        (11432747 /sec)
conflict literals     : 281744         (37.46 % deleted)
Memory used           : 24.61 MB
CPU time              : 0.44721 s

UNSATISFIABLE
